Nb of jobs, Nb of Machines, Time seed, Machine seed, Upper bound, Lower bound
5,5,-1,-1,-1,-1
Times
73,31,35,98,79
96,86,78,87,55
58,13,73,33,37
80,3,73,51,96
52,56,16,96,11
Machines
5,1,3,4,2
2,1,3,4,5
1,4,5,3,2
1,2,4,5,3
4,2,5,1,3
